Problem:    
Rows:       256
Columns:    89 (72 integer, 72 binary)
Non-zeros:  960
Status:     INTEGER OPTIMAL
Objective:  value = 13.144316 (MINimum)

   No.   Row name        Activity     Lower bound   Upper bound
------ ------------    ------------- ------------- -------------
     1 r.5                   1013.14             0               
     2 r.6                  -995.917      -998.358               
     3 r.7                   13.1443             0               
     4 r.8                   8.62974       -994.65               
     5 r.9                   1013.14             0               
     6 r.10                 -997.559      -998.077               
     7 r.11                  13.1443             0               
     8 r.12                  8.48092       -994.68               
     9 r.13                  1013.14             0               
    10 r.14                 -991.519      -997.364               
    11 r.15                  13.1443             0               
    12 r.16                  8.48092      -992.038               
    13 r.17                  1013.14             0               
    14 r.18                 -994.155      -998.841               
    15 r.19                  13.1443             0               
    16 r.20                  5.84456      -995.879               
    17 r.21                  13.1443             0               
    18 r.22                 -997.711      -998.229               
    19 r.23                  1013.14             0               
    20 r.24                 -992.703      -994.592               
    21 r.25                  1013.14             0               
    22 r.26                  -999.92       -999.92               
    23 r.27                  13.1443             0               
    24 r.28                  -997.86       -997.86               
    25 r.29                  13.1443             0               
    26 r.30                  13.1443      -995.402               
    27 r.31                  1013.14             0               
    28 r.32                 -986.856      -994.819               
    29 r.33                  1013.14             0               
    30 r.34                 -986.856      -995.337               
    31 r.35                  13.1443             0               
    32 r.36                  13.1443      -994.097               
    33 r.37                        1             1             = 
    34 r.38                        1             1             = 
    35 r.39                        1             1             = 
    36 r.40                        1             1             = 
    37 r.41                        1             1             = 
    38 r.42                        1             1             = 
    39 r.43                        1             1             = 
    40 r.44                        1             1             = 
    41 r.45                        2             2               
    42 r.46                       -2         -1001               
    43 r.47                   -2.245      -998.077               
    44 r.48                     1000             2               
    45 r.49                    -1000         -1001               
    46 r.50                  2000.52       -994.68               
    47 r.51                        2             2               
    48 r.52                       -2         -1001               
    49 r.53                 -996.205      -997.364               
    50 r.54                     1000             2               
    51 r.55                    -1000         -1001               
    52 r.56                  2000.52      -992.038               
    53 r.57                        2             2               
    54 r.58                       -2         -1001               
    55 r.59                 -998.841      -998.841               
    56 r.60                     1000             2               
    57 r.61                    -1000         -1001               
    58 r.62                  1997.88      -995.879               
    59 r.63                     1001             2               
    60 r.64                    -1001         -1001               
    61 r.65                  997.603      -998.229               
    62 r.66                     1001             2               
    63 r.67                    -1001         -1001               
    64 r.68                  1999.33      -994.592               
    65 r.69                 -996.435      -998.358               
    66 r.70                  8.11178       -994.65               
    67 r.71                   2.4472      -998.358               
    68 r.72                  1006.99       -994.65               
    69 r.73                  8.45826      -995.402               
    70 r.74                 -991.542      -994.819               
    71 r.75                  5.18094      -995.402               
    72 r.76                 -994.819      -994.819               
    73 r.77                        2             2               
    74 r.78                       -2         -1001               
    75 r.79                 -991.542      -995.337               
    76 r.80                     1000             2               
    77 r.81                    -1000         -1001               
    78 r.82                  2005.18      -994.097               
    79 r.83                        2             2               
    80 r.84                       -2         -1001               
    81 r.85                   1.6421        1.6421               
    82 r.86                     1000             2               
    83 r.87                    -1000         -1001               
    84 r.88                  2000.15        5.3502               
    85 r.89                        2             2               
    86 r.90                       -2         -1001               
    87 r.91                  -993.96      -997.364               
    88 r.92                     1000             2               
    89 r.93                    -1000         -1001               
    90 r.94                     2000      -992.038               
    91 r.95                        2             2               
    92 r.96                       -2         -1001               
    93 r.97                 -996.596      -998.841               
    94 r.98                     1000             2               
    95 r.99                    -1000         -1001               
    96 r.100                 1997.36      -995.879               
    97 r.101                    1001             2               
    98 r.102                   -1001         -1001               
    99 r.103                 999.848      -998.229               
   100 r.104                    1001             2               
   101 r.105                   -1001         -1001               
   102 r.106                 1998.82      -994.592               
   103 r.107                -998.077      -998.077               
   104 r.108                 7.96296       -994.68               
   105 r.109                0.805097      -998.077               
   106 r.110                 1006.84       -994.68               
   107 r.111                    1001             2               
   108 r.112                   -1001         -1001               
   109 r.113                  2010.7      -995.402               
   110 r.114                    1001             2               
   111 r.115                   -1001         -1001               
   112 r.116                 2004.66      -994.819               
   113 r.117                -989.297      -995.337               
   114 r.118                 10.7033      -994.097               
   115 r.119                -995.337      -995.337               
   116 r.120                  4.6634      -994.097               
   117 r.121                       2             2               
   118 r.122                      -2         -1001               
   119 r.123                 995.602        1.6421               
   120 r.124                    1000             2               
   121 r.125                   -1000         -1001               
   122 r.126                 2000.15        5.3502               
   123 r.127                       2             2               
   124 r.128                      -2         -1001               
   125 r.129                  993.96        1.9231               
   126 r.130                    1000             2               
   127 r.131                   -1000         -1001               
   128 r.132                    2000       5.32049               
   129 r.133                -997.364      -997.364               
   130 r.134                 2.63636      -992.038               
   131 r.135                -997.364      -997.364               
   132 r.136                 2.63636      -992.038               
   133 r.137                    1001             2               
   134 r.138                   -1001         -1001               
   135 r.139                 993.808      -998.229               
   136 r.140                    1001             2               
   137 r.141                   -1001         -1001               
   138 r.142                 1998.82      -994.592               
   139 r.143                -992.037      -997.364               
   140 r.144                 7.96296      -992.038               
   141 r.145                 6.84496      -997.364               
   142 r.146                 1006.84      -992.038               
   143 r.147                    1001             2               
   144 r.148                   -1001         -1001               
   145 r.149                 2004.66      -995.402               
   146 r.150                    1001             2               
   147 r.151                   -1001         -1001               
   148 r.152                 2004.66      -994.819               
   149 r.153                -995.337      -995.337               
   150 r.154                  4.6634      -994.097               
   151 r.155                -995.337      -995.337               
   152 r.156                  4.6634      -994.097               
   153 r.157                       2             2               
   154 r.158                      -2         -1001               
   155 r.159                 998.239        1.6421               
   156 r.160                    1000             2               
   157 r.161                   -1000         -1001               
   158 r.162                 2002.79        5.3502               
   159 r.163                       2             2               
   160 r.164                      -2         -1001               
   161 r.165                 996.596        1.9231               
   162 r.166                    1000             2               
   163 r.167                   -1000         -1001               
   164 r.168                 2002.64       5.32049               
   165 r.169                    1001             2               
   166 r.170                   -1001         -1001               
   167 r.171                 996.444      -998.229               
   168 r.172                    1001             2               
   169 r.173                   -1001         -1001               
   170 r.174                 2001.45      -994.592               
   171 r.175                -994.673      -998.841               
   172 r.176                  5.3266      -995.879               
   173 r.177                  4.2086      -998.841               
   174 r.178                 1004.21      -995.879               
   175 r.179                    1001             2               
   176 r.180                   -1001         -1001               
   177 r.181                  2007.3      -995.402               
   178 r.182                    1001             2               
   179 r.183                   -1001         -1001               
   180 r.184                  2007.3      -994.819               
   181 r.185                  -992.7      -995.337               
   182 r.186                 7.29976      -994.097               
   183 r.187                  -992.7      -995.337               
   184 r.188                 7.29976      -994.097               
   185 r.189                    1001             2               
   186 r.190                   -1001         -1001               
   187 r.191                  3002.4        1.6421               
   188 r.192                    1001             2               
   189 r.193                   -1001         -1001               
   190 r.194                 2000.67        5.3502               
   191 r.195                    1001             2               
   192 r.196                   -1001         -1001               
   193 r.197                 3000.76        1.9231               
   194 r.198                    1001             2               
   195 r.199                   -1001         -1001               
   196 r.200                 2000.52       5.32049               
   197 r.201                    1001             2               
   198 r.202                   -1001         -1001               
   199 r.203                  3006.8       2.63636               
   200 r.204                    1001             2               
   201 r.205                   -1001         -1001               
   202 r.206                 2000.52       7.96202               
   203 r.207                    1001             2               
   204 r.208                   -1001         -1001               
   205 r.209                 3004.16        1.1585               
   206 r.210                    1001             2               
   207 r.211                   -1001         -1001               
   208 r.212                 1997.88       4.12103               
   209 r.213                -998.229      -998.229               
   210 r.214                -993.221      -994.592               
   211 r.215                0.652697      -998.229               
   212 r.216                 5.66105      -994.592               
   213 r.217                 1011.46      -995.402               
   214 r.218                 11.4586      -994.819               
   215 r.219                 5.18094      -995.402               
   216 r.220                -994.819      -994.819               
   217 r.221                 11.4586      -995.337               
   218 r.222                 1011.46      -994.097               
   219 r.223                -994.819      -995.337               
   220 r.224                 5.18094      -994.097               
   221 r.225                    1001             2               
   222 r.226                   -1001         -1001               
   223 r.227                  1989.3        1.9231               
   224 r.228                    1001             2               
   225 r.229                   -1001         -1001               
   226 r.230                 1995.34       5.32049               
   227 r.231                    1001             2               
   228 r.232                   -1001         -1001               
   229 r.233                 1995.34       2.63636               
   230 r.234                    1001             2               
   231 r.235                   -1001         -1001               
   232 r.236                 1995.34       7.96202               
   233 r.237                    1001             2               
   234 r.238                   -1001         -1001               
   235 r.239                  1992.7        1.1585               
   236 r.240                    1001             2               
   237 r.241                   -1001         -1001               
   238 r.242                  1992.7       4.12103               
   239 r.243                    1001             2               
   240 r.244                   -1001         -1001               
   241 r.245                    2000      -995.337               
   242 r.246                    1001             2               
   243 r.247                   -1001         -1001               
   244 r.248                    2000      -994.097               
   245 r.249                       2             2               
   246 r.250                      -2         -1001               
   247 r.251                 990.939        1.6421               
   248 r.252                    1000             2               
   249 r.253                   -1000         -1001               
   250 r.254                 1995.49        5.3502               
   251 r.255                    1001             2               
   252 r.256                   -1001         -1001               
   253 r.257                    2000       4.59774               
   254 r.258                    1001             2               
   255 r.259                   -1001         -1001               
   256 r.260                    2000       5.18094               

   No. Column name       Activity     Lower bound   Upper bound
------ ------------    ------------- ------------- -------------
     1 tt                    13.1443             0               
     2 s_1_1        *              1             0             1 
     3 t_1_1                 8.45826             0               
     4 s_1_7        *              0             0             1 
     5 s_2_1        *              0             0             1 
     6 t_2_1                 5.18094             0               
     7 s_2_7        *              1             0             1 
     8 s_1_2        *              1             0             1 
     9 t_1_2                 10.7033             0               
    10 s_1_8        *              1             0             1 
    11 s_2_2        *              0             0             1 
    12 t_2_2                  4.6634             0               
    13 s_2_8        *              0             0             1 
    14 s_1_3        *              1             0             1 
    15 t_1_3                  4.6634             0               
    16 s_2_3        *              0             0             1 
    17 t_2_3                  4.6634             0               
    18 s_1_4        *              1             0             1 
    19 t_1_4                 7.29976             0               
    20 s_2_4        *              0             0             1 
    21 t_2_4                 7.29976             0               
    22 s_1_5        *              0             0             1 
    23 t_1_5                 1011.46             0               
    24 s_2_5        *              1             0             1 
    25 t_2_5                 5.18094             0               
    26 s_1_6        *              1             0             1 
    27 t_1_6                 12.6264             0               
    28 s_2_6        *              0             0             1 
    29 t_2_6                 1011.51             0               
    30 t_1_7                       0             0               
    31 t_2_7                       0             0               
    32 t_1_8                       0             0               
    33 t_2_8                       0             0               
    34 r_1_1_2      *              0             0             1 
    35 u_1_1_2      *              0             0             1 
    36 r_2_1_2      *              1             0             1 
    37 u_2_1_2      *              0             0             1 
    38 r_1_1_3      *              0             0             1 
    39 u_1_1_3      *              1             0             1 
    40 r_2_1_3      *              1             0             1 
    41 u_2_1_3      *              0             0             1 
    42 r_1_1_4      *              0             0             1 
    43 u_1_1_4      *              1             0             1 
    44 r_2_1_4      *              1             0             1 
    45 u_2_1_4      *              0             0             1 
    46 r_1_1_5      *              1             0             1 
    47 u_1_1_5      *              0             0             1 
    48 r_2_1_5      *              1             0             1 
    49 u_2_1_5      *              0             0             1 
    50 r_1_1_8      *              0             0             1 
    51 u_1_1_8      *              1             0             1 
    52 r_2_1_8      *              1             0             1 
    53 u_2_1_8      *              0             0             1 
    54 r_1_2_3      *              0             0             1 
    55 u_1_2_3      *              1             0             1 
    56 r_2_2_3      *              1             0             1 
    57 u_2_2_3      *              0             0             1 
    58 r_1_2_4      *              0             0             1 
    59 u_1_2_4      *              1             0             1 
    60 r_2_2_4      *              1             0             1 
    61 u_2_2_4      *              0             0             1 
    62 r_1_2_5      *              1             0             1 
    63 u_1_2_5      *              0             0             1 
    64 r_2_2_5      *              1             0             1 
    65 u_2_2_5      *              0             0             1 
    66 r_1_2_7      *              1             0             1 
    67 u_1_2_7      *              0             0             1 
    68 r_2_2_7      *              1             0             1 
    69 u_2_2_7      *              0             0             1 
    70 r_1_3_5      *              1             0             1 
    71 u_1_3_5      *              0             0             1 
    72 r_2_3_5      *              1             0             1 
    73 u_2_3_5      *              0             0             1 
    74 r_1_3_7      *              1             0             1 
    75 u_1_3_7      *              0             0             1 
    76 r_2_3_7      *              1             0             1 
    77 u_2_3_7      *              0             0             1 
    78 r_1_4_5      *              1             0             1 
    79 u_1_4_5      *              0             0             1 
    80 r_2_4_5      *              1             0             1 
    81 u_2_4_5      *              0             0             1 
    82 r_1_4_7      *              1             0             1 
    83 u_1_4_7      *              0             0             1 
    84 r_2_4_7      *              1             0             1 
    85 u_2_4_7      *              0             0             1 
    86 r_1_7_8      *              1             0             1 
    87 u_1_7_8      *              0             0             1 
    88 r_2_7_8      *              1             0             1 
    89 u_2_7_8      *              0             0             1 

Integer feasibility conditions:

KKT.PE: max.abs.err = 4.55e-13 on row 187
        max.rel.err = 1.12e-16 on row 22
        High quality

KKT.PB: max.abs.err = 6.66e-16 on row 81
        max.rel.err = 2.52e-16 on row 81
        High quality

End of output
